21° run output:
{
    "Function": "kroA750.tsp",
    "Problem dimension": [
        161,
        178,
        24,
        462,
        429,
        648,
        376,
        276,
        9,
        677,
        165,
        600,
        19,
        48,
        444,
        84,
        701,
        218,
        397,
        466,
        206,
        610,
        122,
        193,
        31,
        658,
        333,
        387,
        34,
        650,
        696,
        195,
        176,
        43,
        306,
        355,
        58,
        169,
        200,
        490,
        604,
        20,
        523,
        351,
        443,
        535,
        665,
        565,
        199,
        304,
        627,
        143,
        228,
        721,
        643,
        437,
        277,
        410,
        309,
        46,
        344,
        294,
        4,
        33,
        12,
        678,
        173,
        95,
        495,
        419,
        156,
        111,
        381,
        700,
        10,
        383,
        196,
        642,
        239,
        274,
        235,
        133,
        605,
        592,
        661,
        632,
        88,
        138,
        150,
        232,
        469,
        425,
        704,
        346,
        526,
        725,
        679,
        272,
        3,
        17,
        453,
        75,
        710,
        92,
        189,
        687,
        668,
        538,
        624,
        278,
        496,
        104,
        740,
        312,
        98,
        730,
        715,
        149,
        720,
        749,
        527,
        494,
        152,
        118,
        164,
        83,
        706,
        680,
        681,
        411,
        514,
        492,
        100,
        630,
        748,
        94,
        582,
        348,
        424,
        556,
        478,
        507,
        599,
        457,
        529,
        461,
        737,
        184,
        390,
        249,
        87,
        97,
        338,
        669,
        334,
        240,
        101,
        652,
        566,
        612,
        159,
        707,
        203,
        379,
        86,
        37,
        602,
        155,
        114,
        438,
        69,
        254,
        579,
        575,
        188,
        229,
        283,
        260,
        548,
        310,
        65,
        420,
        36,
        571,
        356,
        148,
        540,
        401,
        370,
        326,
        112,
        427,
        472,
        719,
        407,
        264,
        554,
        500,
        126,
        339,
        364,
        533,
        439,
        82,
        365,
        573,
        153,
        219,
        154,
        621,
        510,
        28,
        613,
        212,
        179,
        44,
        634,
        743,
        311,
        332,
        745,
        685,
        299,
        236,
        238,
        485,
        735,
        583,
        558,
        80,
        280,
        353,
        32,
        606,
        564,
        23,
        298,
        305,
        517,
        452,
        686,
        577,
        552,
        345,
        724,
        572,
        135,
        614,
        596,
        465,
        321,
        404,
        486,
        191,
        72,
        536,
        631,
        270,
        293,
        160,
        657,
        202,
        513,
        671,
        145,
        717,
        458,
        30,
        248,
        289,
        537,
        267,
        380,
        190,
        247,
        593,
        638,
        459,
        303,
        352,
        194,
        129,
        172,
        234,
        331,
        421,
        227,
        698,
        525,
        512,
        354,
        246,
        734,
        347,
        91,
        747,
        480,
        291,
        106,
        223,
        192,
        598,
        471,
        285,
        709,
        137,
        105,
        78,
        553,
        499,
        77,
        428,
        562,
        251,
        53,
        430,
        262,
        317,
        563,
        450,
        127,
        35,
        541,
        574,
        417,
        408,
        398,
        121,
        580,
        325,
        447,
        15,
        259,
        396,
        403,
        497,
        626,
        723,
        128,
        597,
        371,
        225,
        253,
        691,
        722,
        214,
        210,
        216,
        158,
        568,
        282,
        81,
        340,
        618,
        358,
        498,
        47,
        295,
        187,
        287,
        431,
        591,
        125,
        695,
        400,
        713,
        585,
        711,
        275,
        45,
        530,
        637,
        182,
        108,
        134,
        7,
        368,
        647,
        622,
        110,
        489,
        699,
        63,
        166,
        474,
        14,
        131,
        116,
        213,
        147,
        692,
        168,
        594,
        522,
        57,
        586,
        93,
        256,
        52,
        412,
        441,
        38,
        226,
        170,
        61,
        49,
        448,
        570,
        567,
        611,
        423,
        233,
        426,
        64,
        204,
        534,
        561,
        467,
        684,
        608,
        557,
        651,
        416,
        434,
        641,
        207,
        18,
        446,
        603,
        297,
        59,
        738,
        746,
        646,
        559,
        578,
        366,
        120,
        581,
        716,
        99,
        676,
        244,
        520,
        399,
        29,
        501,
        258,
        672,
        209,
        185,
        636,
        217,
        442,
        504,
        479,
        141,
        107,
        8,
        718,
        323,
        66,
        547,
        623,
        374,
        728,
        22,
        221,
        456,
        279,
        393,
        395,
        241,
        451,
        674,
        481,
        454,
        727,
        503,
        545,
        268,
        197,
        653,
        464,
        742,
        162,
        377,
        245,
        484,
        615,
        625,
        319,
        284,
        222,
        506,
        607,
        708,
        389,
        739,
        11,
        318,
        640,
        177,
        16,
        731,
        449,
        385,
        388,
        360,
        119,
        231,
        690,
        569,
        271,
        328,
        180,
        741,
        41,
        702,
        243,
        174,
        644,
        56,
        367,
        394,
        620,
        543,
        261,
        269,
        79,
        415,
        473,
        124,
        183,
        693,
        54,
        117,
        237,
        670,
        242,
        392,
        391,
        664,
        546,
        682,
        5,
        13,
        470,
        324,
        666,
        468,
        493,
        103,
        39,
        163,
        42,
        67,
        375,
        21,
        422,
        483,
        265,
        414,
        288,
        115,
        320,
        292,
        290,
        157,
        2,
        409,
        89,
        102,
        488,
        539,
        487,
        601,
        476,
        68,
        491,
        705,
        406,
        73,
        667,
        531,
        96,
        362,
        688,
        350,
        660,
        307,
        357,
        633,
        436,
        136,
        27,
        139,
        405,
        460,
        123,
        205,
        560,
        589,
        502,
        55,
        175,
        703,
        220,
        266,
        744,
        463,
        675,
        521,
        186,
        595,
        519,
        673,
        729,
        477,
        733,
        151,
        70,
        515,
        198,
        361,
        363,
        694,
        286,
        167,
        171,
        315,
        230,
        252,
        0,
        518,
        663,
        343,
        281,
        301,
        649,
        224,
        635,
        524,
        435,
        413,
        505,
        327,
        628,
        382,
        697,
        528,
        736,
        629,
        654,
        349,
        132,
        386,
        576,
        373,
        337,
        511,
        1,
        211,
        300,
        516,
        384,
        76,
        726,
        689,
        555,
        508,
        62,
        40,
        215,
        330,
        250,
        619,
        584,
        590,
        445,
        51,
        475,
        659,
        714,
        609,
        542,
        90,
        313,
        683,
        144,
        113,
        322,
        130,
        509,
        549,
        273,
        60,
        433,
        378,
        551,
        316,
        617,
        544,
        6,
        109,
        335,
        372,
        140,
        26,
        146,
        74,
        85,
        645,
        662,
        257,
        656,
        616,
        50,
        639,
        550,
        142,
        402,
        482,
        588,
        336,
        532,
        455,
        341,
        25,
        302,
        255,
        296,
        181,
        342,
        208,
        712,
        418,
        308,
        263,
        440,
        359,
        587,
        732,
        201,
        71,
        314,
        432,
        329,
        369,
        655
    ],
    "Global Optimum": 0,
    "Algorithm": "Genetic algorithm",
    "Parameters": {
        "population": 30,
        "offspring": 30,
        "mutation probability": 0.0013333333333333333,
        "crossover probability": 0.9
    },
    "Fitness": 907080,
    "Solution": [
        161,
        178,
        24,
        462,
        429,
        648,
        376,
        276,
        9,
        677,
        165,
        600,
        19,
        48,
        444,
        84,
        701,
        218,
        397,
        466,
        206,
        610,
        122,
        193,
        31,
        658,
        333,
        387,
        34,
        650,
        696,
        195,
        176,
        43,
        306,
        355,
        58,
        169,
        200,
        490,
        604,
        20,
        523,
        351,
        443,
        535,
        665,
        565,
        199,
        304,
        627,
        143,
        228,
        721,
        643,
        437,
        277,
        410,
        309,
        46,
        344,
        294,
        4,
        33,
        12,
        678,
        173,
        95,
        495,
        419,
        156,
        111,
        381,
        700,
        10,
        383,
        196,
        642,
        239,
        274,
        235,
        133,
        605,
        592,
        661,
        632,
        88,
        138,
        150,
        232,
        469,
        425,
        704,
        346,
        526,
        725,
        679,
        272,
        3,
        17,
        453,
        75,
        710,
        92,
        189,
        687,
        668,
        538,
        624,
        278,
        496,
        104,
        740,
        312,
        98,
        730,
        715,
        149,
        720,
        749,
        527,
        494,
        152,
        118,
        164,
        83,
        706,
        680,
        681,
        411,
        514,
        492,
        100,
        630,
        748,
        94,
        582,
        348,
        424,
        556,
        478,
        507,
        599,
        457,
        529,
        461,
        737,
        184,
        390,
        249,
        87,
        97,
        338,
        669,
        334,
        240,
        101,
        652,
        566,
        612,
        159,
        707,
        203,
        379,
        86,
        37,
        602,
        155,
        114,
        438,
        69,
        254,
        579,
        575,
        188,
        229,
        283,
        260,
        548,
        310,
        65,
        420,
        36,
        571,
        356,
        148,
        540,
        401,
        370,
        326,
        112,
        427,
        472,
        719,
        407,
        264,
        554,
        500,
        126,
        339,
        364,
        533,
        439,
        82,
        365,
        573,
        153,
        219,
        154,
        621,
        510,
        28,
        613,
        212,
        179,
        44,
        634,
        743,
        311,
        332,
        745,
        685,
        299,
        236,
        238,
        485,
        735,
        583,
        558,
        80,
        280,
        353,
        32,
        606,
        564,
        23,
        298,
        305,
        517,
        452,
        686,
        577,
        552,
        345,
        724,
        572,
        135,
        614,
        596,
        465,
        321,
        404,
        486,
        191,
        72,
        536,
        631,
        270,
        293,
        160,
        657,
        202,
        513,
        671,
        145,
        717,
        458,
        30,
        248,
        289,
        537,
        267,
        380,
        190,
        247,
        593,
        638,
        459,
        303,
        352,
        194,
        129,
        172,
        234,
        331,
        421,
        227,
        698,
        525,
        512,
        354,
        246,
        734,
        347,
        91,
        747,
        480,
        291,
        106,
        223,
        192,
        598,
        471,
        285,
        709,
        137,
        105,
        78,
        553,
        499,
        77,
        428,
        562,
        251,
        53,
        430,
        262,
        317,
        563,
        450,
        127,
        35,
        541,
        574,
        417,
        408,
        398,
        121,
        580,
        325,
        447,
        15,
        259,
        396,
        403,
        497,
        626,
        723,
        128,
        597,
        371,
        225,
        253,
        691,
        722,
        214,
        210,
        216,
        158,
        568,
        282,
        81,
        340,
        618,
        358,
        498,
        47,
        295,
        187,
        287,
        431,
        591,
        125,
        695,
        400,
        713,
        585,
        711,
        275,
        45,
        530,
        637,
        182,
        108,
        134,
        7,
        368,
        647,
        622,
        110,
        489,
        699,
        63,
        166,
        474,
        14,
        131,
        116,
        213,
        147,
        692,
        168,
        594,
        522,
        57,
        586,
        93,
        256,
        52,
        412,
        441,
        38,
        226,
        170,
        61,
        49,
        448,
        570,
        567,
        611,
        423,
        233,
        426,
        64,
        204,
        534,
        561,
        467,
        684,
        608,
        557,
        651,
        416,
        434,
        641,
        207,
        18,
        446,
        603,
        297,
        59,
        738,
        746,
        646,
        559,
        578,
        366,
        120,
        581,
        716,
        99,
        676,
        244,
        520,
        399,
        29,
        501,
        258,
        672,
        209,
        185,
        636,
        217,
        442,
        504,
        479,
        141,
        107,
        8,
        718,
        323,
        66,
        547,
        623,
        374,
        728,
        22,
        221,
        456,
        279,
        393,
        395,
        241,
        451,
        674,
        481,
        454,
        727,
        503,
        545,
        268,
        197,
        653,
        464,
        742,
        162,
        377,
        245,
        484,
        615,
        625,
        319,
        284,
        222,
        506,
        607,
        708,
        389,
        739,
        11,
        318,
        640,
        177,
        16,
        731,
        449,
        385,
        388,
        360,
        119,
        231,
        690,
        569,
        271,
        328,
        180,
        741,
        41,
        702,
        243,
        174,
        644,
        56,
        367,
        394,
        620,
        543,
        261,
        269,
        79,
        415,
        473,
        124,
        183,
        693,
        54,
        117,
        237,
        670,
        242,
        392,
        391,
        664,
        546,
        682,
        5,
        13,
        470,
        324,
        666,
        468,
        493,
        103,
        39,
        163,
        42,
        67,
        375,
        21,
        422,
        483,
        265,
        414,
        288,
        115,
        320,
        292,
        290,
        157,
        2,
        409,
        89,
        102,
        488,
        539,
        487,
        601,
        476,
        68,
        491,
        705,
        406,
        73,
        667,
        531,
        96,
        362,
        688,
        350,
        660,
        307,
        357,
        633,
        436,
        136,
        27,
        139,
        405,
        460,
        123,
        205,
        560,
        589,
        502,
        55,
        175,
        703,
        220,
        266,
        744,
        463,
        675,
        521,
        186,
        595,
        519,
        673,
        729,
        477,
        733,
        151,
        70,
        515,
        198,
        361,
        363,
        694,
        286,
        167,
        171,
        315,
        230,
        252,
        0,
        518,
        663,
        343,
        281,
        301,
        649,
        224,
        635,
        524,
        435,
        413,
        505,
        327,
        628,
        382,
        697,
        528,
        736,
        629,
        654,
        349,
        132,
        386,
        576,
        373,
        337,
        511,
        1,
        211,
        300,
        516,
        384,
        76,
        726,
        689,
        555,
        508,
        62,
        40,
        215,
        330,
        250,
        619,
        584,
        590,
        445,
        51,
        475,
        659,
        714,
        609,
        542,
        90,
        313,
        683,
        144,
        113,
        322,
        130,
        509,
        549,
        273,
        60,
        433,
        378,
        551,
        316,
        617,
        544,
        6,
        109,
        335,
        372,
        140,
        26,
        146,
        74,
        85,
        645,
        662,
        257,
        656,
        616,
        50,
        639,
        550,
        142,
        402,
        482,
        588,
        336,
        532,
        455,
        341,
        25,
        302,
        255,
        296,
        181,
        342,
        208,
        712,
        418,
        308,
        263,
        440,
        359,
        587,
        732,
        201,
        71,
        314,
        432,
        329,
        369,
        655
    ],
    "Nb of functions evaluations": 400020,
    "Computational time in seconds": 4169.271316289902,
    "Stopping criterion in evaluations": 400000
}